(declare-const xp1 Bool)
(declare-const xm1 Bool)
(declare-const xp2 Bool)
(declare-const xm2 Bool)
(declare-const xp3 Bool)
(declare-const xm3 Bool)
(declare-const xp4 Bool)
(declare-const xm4 Bool)
(declare-const xp5 Bool)
(declare-const xm5 Bool)
(declare-const xp6 Bool)
(declare-const xm6 Bool)
(declare-const xp7 Bool)
(declare-const xm7 Bool)
(declare-const xp8 Bool)
(declare-const xm8 Bool)
(declare-const xp9 Bool)
(declare-const xm9 Bool)
(declare-const xp10 Bool)
(declare-const xm10 Bool)
(declare-const xp11 Bool)
(declare-const xm11 Bool)
(declare-const p0d1t0 Bool)
(declare-const p0d1t1 Bool)
(declare-const p0d1t2 Bool)
(declare-const p0d1t3 Bool)
(declare-const p0d1t4 Bool)
(declare-const p1d1t0 Bool)
(declare-const p1d1t1 Bool)
(declare-const p1d1t2 Bool)
(declare-const p1d1t3 Bool)
(declare-const p1d1t4 Bool)
(declare-const p2d1t0 Bool)
(declare-const p2d1t1 Bool)
(declare-const p2d1t2 Bool)
(declare-const p2d1t3 Bool)
(declare-const p2d1t4 Bool)
(declare-const p3d1t0 Bool)
(declare-const p3d1t1 Bool)
(declare-const p3d1t2 Bool)
(declare-const p3d1t3 Bool)
(declare-const p3d1t4 Bool)
(declare-const p4d1t0 Bool)
(declare-const p4d1t1 Bool)
(declare-const p4d1t2 Bool)
(declare-const p4d1t3 Bool)
(declare-const p4d1t4 Bool)
(declare-const p5d1t0 Bool)
(declare-const p5d1t1 Bool)
(declare-const p5d1t2 Bool)
(declare-const p5d1t3 Bool)
(declare-const p5d1t4 Bool)
(declare-const p6d1t0 Bool)
(declare-const p6d1t1 Bool)
(declare-const p6d1t2 Bool)
(declare-const p6d1t3 Bool)
(declare-const p6d1t4 Bool)
(declare-const p7d1t0 Bool)
(declare-const p7d1t1 Bool)
(declare-const p7d1t2 Bool)
(declare-const p7d1t3 Bool)
(declare-const p7d1t4 Bool)
(declare-const p8d1t0 Bool)
(declare-const p8d1t1 Bool)
(declare-const p8d1t2 Bool)
(declare-const p8d1t3 Bool)
(declare-const p8d1t4 Bool)
(declare-const p9d1t0 Bool)
(declare-const p9d1t1 Bool)
(declare-const p9d1t2 Bool)
(declare-const p9d1t3 Bool)
(declare-const p9d1t4 Bool)
(declare-const p10d1t0 Bool)
(declare-const p10d1t1 Bool)
(declare-const p10d1t2 Bool)
(declare-const p10d1t3 Bool)
(declare-const p10d1t4 Bool)
(declare-const p11d1t0 Bool)
(declare-const p11d1t1 Bool)
(declare-const p11d1t2 Bool)
(declare-const p11d1t3 Bool)
(declare-const p11d1t4 Bool)
(declare-const p0d2t0 Bool)
(declare-const p0d2t1 Bool)
(declare-const p0d2t2 Bool)
(declare-const p0d2t3 Bool)
(declare-const p0d2t4 Bool)
(declare-const p2d2t0 Bool)
(declare-const p2d2t1 Bool)
(declare-const p2d2t2 Bool)
(declare-const p2d2t3 Bool)
(declare-const p2d2t4 Bool)
(declare-const p4d2t0 Bool)
(declare-const p4d2t1 Bool)
(declare-const p4d2t2 Bool)
(declare-const p4d2t3 Bool)
(declare-const p4d2t4 Bool)
(declare-const p6d2t0 Bool)
(declare-const p6d2t1 Bool)
(declare-const p6d2t2 Bool)
(declare-const p6d2t3 Bool)
(declare-const p6d2t4 Bool)
(declare-const p8d2t0 Bool)
(declare-const p8d2t1 Bool)
(declare-const p8d2t2 Bool)
(declare-const p8d2t3 Bool)
(declare-const p8d2t4 Bool)
(declare-const p10d2t0 Bool)
(declare-const p10d2t1 Bool)
(declare-const p10d2t2 Bool)
(declare-const p10d2t3 Bool)
(declare-const p10d2t4 Bool)
(declare-const p0d3t0 Bool)
(declare-const p0d3t1 Bool)
(declare-const p0d3t2 Bool)
(declare-const p0d3t3 Bool)
(declare-const p0d3t4 Bool)
(declare-const p3d3t0 Bool)
(declare-const p3d3t1 Bool)
(declare-const p3d3t2 Bool)
(declare-const p3d3t3 Bool)
(declare-const p3d3t4 Bool)
(declare-const p6d3t0 Bool)
(declare-const p6d3t1 Bool)
(declare-const p6d3t2 Bool)
(declare-const p6d3t3 Bool)
(declare-const p6d3t4 Bool)
(declare-const p9d3t0 Bool)
(declare-const p9d3t1 Bool)
(declare-const p9d3t2 Bool)
(declare-const p9d3t3 Bool)
(declare-const p9d3t4 Bool)
(declare-const p0d4t0 Bool)
(declare-const p0d4t1 Bool)
(declare-const p0d4t2 Bool)
(declare-const p0d4t3 Bool)
(declare-const p0d4t4 Bool)
(declare-const p4d4t0 Bool)
(declare-const p4d4t1 Bool)
(declare-const p4d4t2 Bool)
(declare-const p4d4t3 Bool)
(declare-const p4d4t4 Bool)
(declare-const p8d4t0 Bool)
(declare-const p8d4t1 Bool)
(declare-const p8d4t2 Bool)
(declare-const p8d4t3 Bool)
(declare-const p8d4t4 Bool)
(declare-const p0d5t0 Bool)
(declare-const p0d5t1 Bool)
(declare-const p0d5t2 Bool)
(declare-const p0d5t3 Bool)
(declare-const p0d5t4 Bool)
(declare-const p5d5t0 Bool)
(declare-const p5d5t1 Bool)
(declare-const p5d5t2 Bool)
(declare-const p5d5t3 Bool)
(declare-const p5d5t4 Bool)
(declare-const p10d5t0 Bool)
(declare-const p10d5t1 Bool)
(declare-const p10d5t2 Bool)
(declare-const p10d5t3 Bool)
(declare-const p10d5t4 Bool)
(assert (xor xp1 xm1))
(assert (xor xp2 xm2))
(assert (xor xp3 xm3))
(assert (xor xp4 xm4))
(assert (xor xp5 xm5))
(assert (xor xp6 xm6))
(assert (xor xp7 xm7))
(assert (xor xp8 xm8))
(assert (xor xp9 xm9))
(assert (xor xp10 xm10))
(assert (xor xp11 xm11))
(assert p0d1t2)
(assert (or (not (and p0d1t1 xm1)) p1d1t0))
(assert (not p1d1t0))
(assert (not p1d1t4))
(assert (or (not (and p0d1t0 xp1)) p1d1t1))
(assert (or (not (and p0d1t2 xm1)) p1d1t1))
(assert (not p1d1t0))
(assert (not p1d1t4))
(assert (or (not (and p0d1t1 xp1)) p1d1t2))
(assert (or (not (and p0d1t3 xm1)) p1d1t2))
(assert (not p1d1t0))
(assert (not p1d1t4))
(assert (or (not (and p0d1t2 xp1)) p1d1t3))
(assert (or (not (and p0d1t4 xm1)) p1d1t3))
(assert (not p1d1t0))
(assert (not p1d1t4))
(assert (or (not (and p0d1t3 xp1)) p1d1t4))
(assert (not p1d1t0))
(assert (not p1d1t4))
(assert (or (not (and p1d1t1 xm2)) p2d1t0))
(assert (not p2d1t0))
(assert (not p2d1t4))
(assert (or (not (and p1d1t0 xp2)) p2d1t1))
(assert (or (not (and p1d1t2 xm2)) p2d1t1))
(assert (not p2d1t0))
(assert (not p2d1t4))
(assert (or (not (and p1d1t1 xp2)) p2d1t2))
(assert (or (not (and p1d1t3 xm2)) p2d1t2))
(assert (not p2d1t0))
(assert (not p2d1t4))
(assert (or (not (and p1d1t2 xp2)) p2d1t3))
(assert (or (not (and p1d1t4 xm2)) p2d1t3))
(assert (not p2d1t0))
(assert (not p2d1t4))
(assert (or (not (and p1d1t3 xp2)) p2d1t4))
(assert (not p2d1t0))
(assert (not p2d1t4))
(assert (or (not (and p2d1t1 xm3)) p3d1t0))
(assert (not p3d1t0))
(assert (not p3d1t4))
(assert (or (not (and p2d1t0 xp3)) p3d1t1))
(assert (or (not (and p2d1t2 xm3)) p3d1t1))
(assert (not p3d1t0))
(assert (not p3d1t4))
(assert (or (not (and p2d1t1 xp3)) p3d1t2))
(assert (or (not (and p2d1t3 xm3)) p3d1t2))
(assert (not p3d1t0))
(assert (not p3d1t4))
(assert (or (not (and p2d1t2 xp3)) p3d1t3))
(assert (or (not (and p2d1t4 xm3)) p3d1t3))
(assert (not p3d1t0))
(assert (not p3d1t4))
(assert (or (not (and p2d1t3 xp3)) p3d1t4))
(assert (not p3d1t0))
(assert (not p3d1t4))
(assert (or (not (and p3d1t1 xm4)) p4d1t0))
(assert (not p4d1t0))
(assert (not p4d1t4))
(assert (or (not (and p3d1t0 xp4)) p4d1t1))
(assert (or (not (and p3d1t2 xm4)) p4d1t1))
(assert (not p4d1t0))
(assert (not p4d1t4))
(assert (or (not (and p3d1t1 xp4)) p4d1t2))
(assert (or (not (and p3d1t3 xm4)) p4d1t2))
(assert (not p4d1t0))
(assert (not p4d1t4))
(assert (or (not (and p3d1t2 xp4)) p4d1t3))
(assert (or (not (and p3d1t4 xm4)) p4d1t3))
(assert (not p4d1t0))
(assert (not p4d1t4))
(assert (or (not (and p3d1t3 xp4)) p4d1t4))
(assert (not p4d1t0))
(assert (not p4d1t4))
(assert (or (not (and p4d1t1 xm5)) p5d1t0))
(assert (not p5d1t0))
(assert (not p5d1t4))
(assert (or (not (and p4d1t0 xp5)) p5d1t1))
(assert (or (not (and p4d1t2 xm5)) p5d1t1))
(assert (not p5d1t0))
(assert (not p5d1t4))
(assert (or (not (and p4d1t1 xp5)) p5d1t2))
(assert (or (not (and p4d1t3 xm5)) p5d1t2))
(assert (not p5d1t0))
(assert (not p5d1t4))
(assert (or (not (and p4d1t2 xp5)) p5d1t3))
(assert (or (not (and p4d1t4 xm5)) p5d1t3))
(assert (not p5d1t0))
(assert (not p5d1t4))
(assert (or (not (and p4d1t3 xp5)) p5d1t4))
(assert (not p5d1t0))
(assert (not p5d1t4))
(assert (or (not (and p5d1t1 xm6)) p6d1t0))
(assert (not p6d1t0))
(assert (not p6d1t4))
(assert (or (not (and p5d1t0 xp6)) p6d1t1))
(assert (or (not (and p5d1t2 xm6)) p6d1t1))
(assert (not p6d1t0))
(assert (not p6d1t4))
(assert (or (not (and p5d1t1 xp6)) p6d1t2))
(assert (or (not (and p5d1t3 xm6)) p6d1t2))
(assert (not p6d1t0))
(assert (not p6d1t4))
(assert (or (not (and p5d1t2 xp6)) p6d1t3))
(assert (or (not (and p5d1t4 xm6)) p6d1t3))
(assert (not p6d1t0))
(assert (not p6d1t4))
(assert (or (not (and p5d1t3 xp6)) p6d1t4))
(assert (not p6d1t0))
(assert (not p6d1t4))
(assert (or (not (and p6d1t1 xm7)) p7d1t0))
(assert (not p7d1t0))
(assert (not p7d1t4))
(assert (or (not (and p6d1t0 xp7)) p7d1t1))
(assert (or (not (and p6d1t2 xm7)) p7d1t1))
(assert (not p7d1t0))
(assert (not p7d1t4))
(assert (or (not (and p6d1t1 xp7)) p7d1t2))
(assert (or (not (and p6d1t3 xm7)) p7d1t2))
(assert (not p7d1t0))
(assert (not p7d1t4))
(assert (or (not (and p6d1t2 xp7)) p7d1t3))
(assert (or (not (and p6d1t4 xm7)) p7d1t3))
(assert (not p7d1t0))
(assert (not p7d1t4))
(assert (or (not (and p6d1t3 xp7)) p7d1t4))
(assert (not p7d1t0))
(assert (not p7d1t4))
(assert (or (not (and p7d1t1 xm8)) p8d1t0))
(assert (not p8d1t0))
(assert (not p8d1t4))
(assert (or (not (and p7d1t0 xp8)) p8d1t1))
(assert (or (not (and p7d1t2 xm8)) p8d1t1))
(assert (not p8d1t0))
(assert (not p8d1t4))
(assert (or (not (and p7d1t1 xp8)) p8d1t2))
(assert (or (not (and p7d1t3 xm8)) p8d1t2))
(assert (not p8d1t0))
(assert (not p8d1t4))
(assert (or (not (and p7d1t2 xp8)) p8d1t3))
(assert (or (not (and p7d1t4 xm8)) p8d1t3))
(assert (not p8d1t0))
(assert (not p8d1t4))
(assert (or (not (and p7d1t3 xp8)) p8d1t4))
(assert (not p8d1t0))
(assert (not p8d1t4))
(assert (or (not (and p8d1t1 xm9)) p9d1t0))
(assert (not p9d1t0))
(assert (not p9d1t4))
(assert (or (not (and p8d1t0 xp9)) p9d1t1))
(assert (or (not (and p8d1t2 xm9)) p9d1t1))
(assert (not p9d1t0))
(assert (not p9d1t4))
(assert (or (not (and p8d1t1 xp9)) p9d1t2))
(assert (or (not (and p8d1t3 xm9)) p9d1t2))
(assert (not p9d1t0))
(assert (not p9d1t4))
(assert (or (not (and p8d1t2 xp9)) p9d1t3))
(assert (or (not (and p8d1t4 xm9)) p9d1t3))
(assert (not p9d1t0))
(assert (not p9d1t4))
(assert (or (not (and p8d1t3 xp9)) p9d1t4))
(assert (not p9d1t0))
(assert (not p9d1t4))
(assert (or (not (and p9d1t1 xm10)) p10d1t0))
(assert (not p10d1t0))
(assert (not p10d1t4))
(assert (or (not (and p9d1t0 xp10)) p10d1t1))
(assert (or (not (and p9d1t2 xm10)) p10d1t1))
(assert (not p10d1t0))
(assert (not p10d1t4))
(assert (or (not (and p9d1t1 xp10)) p10d1t2))
(assert (or (not (and p9d1t3 xm10)) p10d1t2))
(assert (not p10d1t0))
(assert (not p10d1t4))
(assert (or (not (and p9d1t2 xp10)) p10d1t3))
(assert (or (not (and p9d1t4 xm10)) p10d1t3))
(assert (not p10d1t0))
(assert (not p10d1t4))
(assert (or (not (and p9d1t3 xp10)) p10d1t4))
(assert (not p10d1t0))
(assert (not p10d1t4))
(assert (or (not (and p10d1t1 xm11)) p11d1t0))
(assert (not p11d1t0))
(assert (not p11d1t4))
(assert (or (not (and p10d1t0 xp11)) p11d1t1))
(assert (or (not (and p10d1t2 xm11)) p11d1t1))
(assert (not p11d1t0))
(assert (not p11d1t4))
(assert (or (not (and p10d1t1 xp11)) p11d1t2))
(assert (or (not (and p10d1t3 xm11)) p11d1t2))
(assert (not p11d1t0))
(assert (not p11d1t4))
(assert (or (not (and p10d1t2 xp11)) p11d1t3))
(assert (or (not (and p10d1t4 xm11)) p11d1t3))
(assert (not p11d1t0))
(assert (not p11d1t4))
(assert (or (not (and p10d1t3 xp11)) p11d1t4))
(assert (not p11d1t0))
(assert (not p11d1t4))
(assert p0d2t2)
(assert (or (not (and p0d2t1 xm2)) p2d2t0))
(assert (not p2d2t0))
(assert (not p2d2t4))
(assert (or (not (and p0d2t0 xp2)) p2d2t1))
(assert (or (not (and p0d2t2 xm2)) p2d2t1))
(assert (not p2d2t0))
(assert (not p2d2t4))
(assert (or (not (and p0d2t1 xp2)) p2d2t2))
(assert (or (not (and p0d2t3 xm2)) p2d2t2))
(assert (not p2d2t0))
(assert (not p2d2t4))
(assert (or (not (and p0d2t2 xp2)) p2d2t3))
(assert (or (not (and p0d2t4 xm2)) p2d2t3))
(assert (not p2d2t0))
(assert (not p2d2t4))
(assert (or (not (and p0d2t3 xp2)) p2d2t4))
(assert (not p2d2t0))
(assert (not p2d2t4))
(assert (or (not (and p2d2t1 xm4)) p4d2t0))
(assert (not p4d2t0))
(assert (not p4d2t4))
(assert (or (not (and p2d2t0 xp4)) p4d2t1))
(assert (or (not (and p2d2t2 xm4)) p4d2t1))
(assert (not p4d2t0))
(assert (not p4d2t4))
(assert (or (not (and p2d2t1 xp4)) p4d2t2))
(assert (or (not (and p2d2t3 xm4)) p4d2t2))
(assert (not p4d2t0))
(assert (not p4d2t4))
(assert (or (not (and p2d2t2 xp4)) p4d2t3))
(assert (or (not (and p2d2t4 xm4)) p4d2t3))
(assert (not p4d2t0))
(assert (not p4d2t4))
(assert (or (not (and p2d2t3 xp4)) p4d2t4))
(assert (not p4d2t0))
(assert (not p4d2t4))
(assert (or (not (and p4d2t1 xm6)) p6d2t0))
(assert (not p6d2t0))
(assert (not p6d2t4))
(assert (or (not (and p4d2t0 xp6)) p6d2t1))
(assert (or (not (and p4d2t2 xm6)) p6d2t1))
(assert (not p6d2t0))
(assert (not p6d2t4))
(assert (or (not (and p4d2t1 xp6)) p6d2t2))
(assert (or (not (and p4d2t3 xm6)) p6d2t2))
(assert (not p6d2t0))
(assert (not p6d2t4))
(assert (or (not (and p4d2t2 xp6)) p6d2t3))
(assert (or (not (and p4d2t4 xm6)) p6d2t3))
(assert (not p6d2t0))
(assert (not p6d2t4))
(assert (or (not (and p4d2t3 xp6)) p6d2t4))
(assert (not p6d2t0))
(assert (not p6d2t4))
(assert (or (not (and p6d2t1 xm8)) p8d2t0))
(assert (not p8d2t0))
(assert (not p8d2t4))
(assert (or (not (and p6d2t0 xp8)) p8d2t1))
(assert (or (not (and p6d2t2 xm8)) p8d2t1))
(assert (not p8d2t0))
(assert (not p8d2t4))
(assert (or (not (and p6d2t1 xp8)) p8d2t2))
(assert (or (not (and p6d2t3 xm8)) p8d2t2))
(assert (not p8d2t0))
(assert (not p8d2t4))
(assert (or (not (and p6d2t2 xp8)) p8d2t3))
(assert (or (not (and p6d2t4 xm8)) p8d2t3))
(assert (not p8d2t0))
(assert (not p8d2t4))
(assert (or (not (and p6d2t3 xp8)) p8d2t4))
(assert (not p8d2t0))
(assert (not p8d2t4))
(assert (or (not (and p8d2t1 xm10)) p10d2t0))
(assert (not p10d2t0))
(assert (not p10d2t4))
(assert (or (not (and p8d2t0 xp10)) p10d2t1))
(assert (or (not (and p8d2t2 xm10)) p10d2t1))
(assert (not p10d2t0))
(assert (not p10d2t4))
(assert (or (not (and p8d2t1 xp10)) p10d2t2))
(assert (or (not (and p8d2t3 xm10)) p10d2t2))
(assert (not p10d2t0))
(assert (not p10d2t4))
(assert (or (not (and p8d2t2 xp10)) p10d2t3))
(assert (or (not (and p8d2t4 xm10)) p10d2t3))
(assert (not p10d2t0))
(assert (not p10d2t4))
(assert (or (not (and p8d2t3 xp10)) p10d2t4))
(assert (not p10d2t0))
(assert (not p10d2t4))
(assert p0d3t2)
(assert (or (not (and p0d3t1 xm3)) p3d3t0))
(assert (not p3d3t0))
(assert (not p3d3t4))
(assert (or (not (and p0d3t0 xp3)) p3d3t1))
(assert (or (not (and p0d3t2 xm3)) p3d3t1))
(assert (not p3d3t0))
(assert (not p3d3t4))
(assert (or (not (and p0d3t1 xp3)) p3d3t2))
(assert (or (not (and p0d3t3 xm3)) p3d3t2))
(assert (not p3d3t0))
(assert (not p3d3t4))
(assert (or (not (and p0d3t2 xp3)) p3d3t3))
(assert (or (not (and p0d3t4 xm3)) p3d3t3))
(assert (not p3d3t0))
(assert (not p3d3t4))
(assert (or (not (and p0d3t3 xp3)) p3d3t4))
(assert (not p3d3t0))
(assert (not p3d3t4))
(assert (or (not (and p3d3t1 xm6)) p6d3t0))
(assert (not p6d3t0))
(assert (not p6d3t4))
(assert (or (not (and p3d3t0 xp6)) p6d3t1))
(assert (or (not (and p3d3t2 xm6)) p6d3t1))
(assert (not p6d3t0))
(assert (not p6d3t4))
(assert (or (not (and p3d3t1 xp6)) p6d3t2))
(assert (or (not (and p3d3t3 xm6)) p6d3t2))
(assert (not p6d3t0))
(assert (not p6d3t4))
(assert (or (not (and p3d3t2 xp6)) p6d3t3))
(assert (or (not (and p3d3t4 xm6)) p6d3t3))
(assert (not p6d3t0))
(assert (not p6d3t4))
(assert (or (not (and p3d3t3 xp6)) p6d3t4))
(assert (not p6d3t0))
(assert (not p6d3t4))
(assert (or (not (and p6d3t1 xm9)) p9d3t0))
(assert (not p9d3t0))
(assert (not p9d3t4))
(assert (or (not (and p6d3t0 xp9)) p9d3t1))
(assert (or (not (and p6d3t2 xm9)) p9d3t1))
(assert (not p9d3t0))
(assert (not p9d3t4))
(assert (or (not (and p6d3t1 xp9)) p9d3t2))
(assert (or (not (and p6d3t3 xm9)) p9d3t2))
(assert (not p9d3t0))
(assert (not p9d3t4))
(assert (or (not (and p6d3t2 xp9)) p9d3t3))
(assert (or (not (and p6d3t4 xm9)) p9d3t3))
(assert (not p9d3t0))
(assert (not p9d3t4))
(assert (or (not (and p6d3t3 xp9)) p9d3t4))
(assert (not p9d3t0))
(assert (not p9d3t4))
(assert p0d4t2)
(assert (or (not (and p0d4t1 xm4)) p4d4t0))
(assert (not p4d4t0))
(assert (not p4d4t4))
(assert (or (not (and p0d4t0 xp4)) p4d4t1))
(assert (or (not (and p0d4t2 xm4)) p4d4t1))
(assert (not p4d4t0))
(assert (not p4d4t4))
(assert (or (not (and p0d4t1 xp4)) p4d4t2))
(assert (or (not (and p0d4t3 xm4)) p4d4t2))
(assert (not p4d4t0))
(assert (not p4d4t4))
(assert (or (not (and p0d4t2 xp4)) p4d4t3))
(assert (or (not (and p0d4t4 xm4)) p4d4t3))
(assert (not p4d4t0))
(assert (not p4d4t4))
(assert (or (not (and p0d4t3 xp4)) p4d4t4))
(assert (not p4d4t0))
(assert (not p4d4t4))
(assert (or (not (and p4d4t1 xm8)) p8d4t0))
(assert (not p8d4t0))
(assert (not p8d4t4))
(assert (or (not (and p4d4t0 xp8)) p8d4t1))
(assert (or (not (and p4d4t2 xm8)) p8d4t1))
(assert (not p8d4t0))
(assert (not p8d4t4))
(assert (or (not (and p4d4t1 xp8)) p8d4t2))
(assert (or (not (and p4d4t3 xm8)) p8d4t2))
(assert (not p8d4t0))
(assert (not p8d4t4))
(assert (or (not (and p4d4t2 xp8)) p8d4t3))
(assert (or (not (and p4d4t4 xm8)) p8d4t3))
(assert (not p8d4t0))
(assert (not p8d4t4))
(assert (or (not (and p4d4t3 xp8)) p8d4t4))
(assert (not p8d4t0))
(assert (not p8d4t4))
(assert p0d5t2)
(assert (or (not (and p0d5t1 xm5)) p5d5t0))
(assert (not p5d5t0))
(assert (not p5d5t4))
(assert (or (not (and p0d5t0 xp5)) p5d5t1))
(assert (or (not (and p0d5t2 xm5)) p5d5t1))
(assert (not p5d5t0))
(assert (not p5d5t4))
(assert (or (not (and p0d5t1 xp5)) p5d5t2))
(assert (or (not (and p0d5t3 xm5)) p5d5t2))
(assert (not p5d5t0))
(assert (not p5d5t4))
(assert (or (not (and p0d5t2 xp5)) p5d5t3))
(assert (or (not (and p0d5t4 xm5)) p5d5t3))
(assert (not p5d5t0))
(assert (not p5d5t4))
(assert (or (not (and p0d5t3 xp5)) p5d5t4))
(assert (not p5d5t0))
(assert (not p5d5t4))
(assert (or (not (and p5d5t1 xm10)) p10d5t0))
(assert (not p10d5t0))
(assert (not p10d5t4))
(assert (or (not (and p5d5t0 xp10)) p10d5t1))
(assert (or (not (and p5d5t2 xm10)) p10d5t1))
(assert (not p10d5t0))
(assert (not p10d5t4))
(assert (or (not (and p5d5t1 xp10)) p10d5t2))
(assert (or (not (and p5d5t3 xm10)) p10d5t2))
(assert (not p10d5t0))
(assert (not p10d5t4))
(assert (or (not (and p5d5t2 xp10)) p10d5t3))
(assert (or (not (and p5d5t4 xm10)) p10d5t3))
(assert (not p10d5t0))
(assert (not p10d5t4))
(assert (or (not (and p5d5t3 xp10)) p10d5t4))
(assert (not p10d5t0))
(assert (not p10d5t4))
(check-sat)
(get-model)
